p edge 75 833
e 1 3
e 1 6
e 1 7
e 1 8
e 1 16
e 1 26
e 1 28
e 1 37
e 1 38
e 1 41
e 1 42
e 1 43
e 1 45
e 1 46
e 1 49
e 1 52
e 1 55
e 1 58
e 1 61
e 1 63
e 1 66
e 1 70
e 1 71
e 2 3
e 2 8
e 2 10
e 2 15
e 2 18
e 2 25
e 2 26
e 2 29
e 2 31
e 2 33
e 2 38
e 2 39
e 2 40
e 2 41
e 2 44
e 2 45
e 2 46
e 2 50
e 2 60
e 2 62
e 2 63
e 2 65
e 2 69
e 2 70
e 2 71
e 3 5
e 3 7
e 3 9
e 3 10
e 3 13
e 3 20
e 3 28
e 3 34
e 3 36
e 3 37
e 3 42
e 3 48
e 3 51
e 3 55
e 3 56
e 3 58
e 3 59
e 3 61
e 3 62
e 3 65
e 3 67
e 3 69
e 3 71
e 3 73
e 4 13
e 4 14
e 4 16
e 4 22
e 4 23
e 4 29
e 4 32
e 4 33
e 4 36
e 4 42
e 4 46
e 4 47
e 4 52
e 4 55
e 4 57
e 4 61
e 4 62
e 4 65
e 4 66
e 4 68
e 4 69
e 4 70
e 5 6
e 5 10
e 5 11
e 5 12
e 5 16
e 5 18
e 5 25
e 5 27
e 5 31
e 5 34
e 5 35
e 5 37
e 5 38
e 5 39
e 5 40
e 5 41
e 5 44
e 5 45
e 5 50
e 5 56
e 5 60
e 5 63
e 5 65
e 5 67
e 5 69
e 5 72
e 5 74
e 6 11
e 6 14
e 6 15
e 6 22
e 6 23
e 6 25
e 6 27
e 6 29
e 6 30
e 6 33
e 6 44
e 6 45
e 6 46
e 6 48
e 6 53
e 6 55
e 6 60
e 6 64
e 6 69
e 6 70
e 6 73
e 6 75
e 7 10
e 7 14
e 7 15
e 7 17
e 7 21
e 7 24
e 7 35
e 7 41
e 7 49
e 7 50
e 7 51
e 7 53
e 7 56
e 7 58
e 7 59
e 7 61
e 7 62
e 7 63
e 7 68
e 7 69
e 7 72
e 7 74
e 8 17
e 8 20
e 8 26
e 8 33
e 8 34
e 8 37
e 8 47
e 8 55
e 8 56
e 8 57
e 8 58
e 8 65
e 8 69
e 8 74
e 8 75
e 9 17
e 9 25
e 9 26
e 9 31
e 9 35
e 9 39
e 9 42
e 9 44
e 9 45
e 9 49
e 9 50
e 9 55
e 9 57
e 9 58
e 9 65
e 9 66
e 9 67
e 9 70
e 9 74
e 10 11
e 10 12
e 10 19
e 10 23
e 10 24
e 10 30
e 10 31
e 10 32
e 10 33
e 10 36
e 10 39
e 10 41
e 10 43
e 10 45
e 10 47
e 10 49
e 10 51
e 10 65
e 10 69
e 10 71
e 11 13
e 11 14
e 11 15
e 11 16
e 11 26
e 11 27
e 11 29
e 11 30
e 11 33
e 11 41
e 11 43
e 11 44
e 11 45
e 11 50
e 11 52
e 11 53
e 11 55
e 11 56
e 11 62
e 11 68
e 11 70
e 12 25
e 12 30
e 12 32
e 12 36
e 12 37
e 12 43
e 12 48
e 12 62
e 12 63
e 12 75
e 13 19
e 13 25
e 13 31
e 13 32
e 13 33
e 13 34
e 13 35
e 13 39
e 13 40
e 13 41
e 13 51
e 13 55
e 13 60
e 13 63
e 13 67
e 13 69
e 13 71
e 13 72
e 14 16
e 14 19
e 14 21
e 14 29
e 14 35
e 14 36
e 14 37
e 14 38
e 14 44
e 14 45
e 14 46
e 14 47
e 14 49
e 14 55
e 14 56
e 14 57
e 14 58
e 14 61
e 14 63
e 14 71
e 14 74
e 14 75
e 15 16
e 15 18
e 15 20
e 15 21
e 15 24
e 15 37
e 15 40
e 15 46
e 15 50
e 15 51
e 15 52
e 15 53
e 15 56
e 15 67
e 16 18
e 16 21
e 16 25
e 16 28
e 16 29
e 16 36
e 16 38
e 16 39
e 16 43
e 16 47
e 16 50
e 16 56
e 16 57
e 16 60
e 16 61
e 16 63
e 16 67
e 16 68
e 16 69
e 16 71
e 16 74
e 17 18
e 17 24
e 17 26
e 17 30
e 17 35
e 17 40
e 17 42
e 17 44
e 17 46
e 17 49
e 17 51
e 17 52
e 17 55
e 17 56
e 17 58
e 17 59
e 17 68
e 17 73
e 17 74
e 18 24
e 18 25
e 18 26
e 18 28
e 18 30
e 18 31
e 18 32
e 18 33
e 18 36
e 18 39
e 18 43
e 18 45
e 18 48
e 18 58
e 18 61
e 18 65
e 18 67
e 18 75
e 19 20
e 19 23
e 19 25
e 19 26
e 19 44
e 19 45
e 19 50
e 19 52
e 19 61
e 19 62
e 19 65
e 19 67
e 19 68
e 19 73
e 19 75
e 20 28
e 20 32
e 20 33
e 20 34
e 20 37
e 20 38
e 20 41
e 20 50
e 20 51
e 20 54
e 20 55
e 20 64
e 20 66
e 20 67
e 20 68
e 20 69
e 21 25
e 21 27
e 21 31
e 21 33
e 21 38
e 21 41
e 21 43
e 21 47
e 21 52
e 21 58
e 21 60
e 21 62
e 21 67
e 21 68
e 21 75
e 22 24
e 22 29
e 22 30
e 22 32
e 22 38
e 22 43
e 22 45
e 22 49
e 22 55
e 22 58
e 22 59
e 22 61
e 22 66
e 23 24
e 23 27
e 23 28
e 23 34
e 23 35
e 23 46
e 23 50
e 23 54
e 23 55
e 23 60
e 23 64
e 23 65
e 23 69
e 23 72
e 24 26
e 24 32
e 24 34
e 24 36
e 24 37
e 24 39
e 24 44
e 24 48
e 24 49
e 24 52
e 24 57
e 24 60
e 24 62
e 24 65
e 24 70
e 24 72
e 24 75
e 25 32
e 25 46
e 25 54
e 25 55
e 25 56
e 25 58
e 25 59
e 25 60
e 25 65
e 25 66
e 25 67
e 25 71
e 25 72
e 26 29
e 26 32
e 26 39
e 26 45
e 26 47
e 26 48
e 26 49
e 26 50
e 26 53
e 26 59
e 26 62
e 26 65
e 26 66
e 26 70
e 27 29
e 27 33
e 27 35
e 27 38
e 27 41
e 27 43
e 27 46
e 27 56
e 27 57
e 27 63
e 27 64
e 27 69
e 27 70
e 27 72
e 27 74
e 28 33
e 28 37
e 28 41
e 28 44
e 28 48
e 28 59
e 28 63
e 28 68
e 28 69
e 28 75
e 29 30
e 29 32
e 29 33
e 29 36
e 29 37
e 29 45
e 29 46
e 29 48
e 29 52
e 29 54
e 29 63
e 29 70
e 29 75
e 30 32
e 30 35
e 30 36
e 30 37
e 30 41
e 30 45
e 30 46
e 30 48
e 30 49
e 30 51
e 30 53
e 30 55
e 30 58
e 30 59
e 30 62
e 30 71
e 31 33
e 31 37
e 31 40
e 31 41
e 31 42
e 31 44
e 31 48
e 31 49
e 31 50
e 31 53
e 31 55
e 31 59
e 31 60
e 31 62
e 31 69
e 31 71
e 32 40
e 32 42
e 32 47
e 32 50
e 32 53
e 32 55
e 32 59
e 32 62
e 32 67
e 32 73
e 33 38
e 33 40
e 33 42
e 33 43
e 33 47
e 33 51
e 33 56
e 33 62
e 33 63
e 33 64
e 33 75
e 34 35
e 34 40
e 34 41
e 34 43
e 34 44
e 34 45
e 34 49
e 34 54
e 34 56
e 34 57
e 34 61
e 34 62
e 34 64
e 34 65
e 34 68
e 34 70
e 34 75
e 35 38
e 35 52
e 35 53
e 35 54
e 35 68
e 35 70
e 35 71
e 35 73
e 36 40
e 36 48
e 36 52
e 36 54
e 36 58
e 36 64
e 36 66
e 36 67
e 36 70
e 36 71
e 37 38
e 37 39
e 37 41
e 37 42
e 37 50
e 37 51
e 37 53
e 37 55
e 37 60
e 37 63
e 37 65
e 37 67
e 37 71
e 38 39
e 38 41
e 38 43
e 38 44
e 38 45
e 38 47
e 38 51
e 38 52
e 38 53
e 38 56
e 38 58
e 38 59
e 38 60
e 38 62
e 38 68
e 39 44
e 39 45
e 39 47
e 39 48
e 39 50
e 39 53
e 39 58
e 39 60
e 39 61
e 39 65
e 39 67
e 39 69
e 39 74
e 40 47
e 40 53
e 40 59
e 40 66
e 40 72
e 40 74
e 41 42
e 41 45
e 41 53
e 41 54
e 41 55
e 41 66
e 41 71
e 41 73
e 42 51
e 42 54
e 42 56
e 42 58
e 42 59
e 42 64
e 42 66
e 42 69
e 42 72
e 42 74
e 43 52
e 43 58
e 43 67
e 44 46
e 44 51
e 44 56
e 44 57
e 44 59
e 44 62
e 44 63
e 44 65
e 44 67
e 44 70
e 44 71
e 44 72
e 44 75
e 45 47
e 45 49
e 45 52
e 45 56
e 45 57
e 45 58
e 45 60
e 45 66
e 45 67
e 45 73
e 46 48
e 46 49
e 46 50
e 46 52
e 46 53
e 46 54
e 46 55
e 46 60
e 46 61
e 46 69
e 46 70
e 46 71
e 46 72
e 46 74
e 46 75
e 47 48
e 47 49
e 47 53
e 47 54
e 47 56
e 47 63
e 47 67
e 47 72
e 47 75
e 48 51
e 48 52
e 48 54
e 48 60
e 48 66
e 48 67
e 48 69
e 48 73
e 49 56
e 49 57
e 49 58
e 49 60
e 49 64
e 49 68
e 50 51
e 50 52
e 50 53
e 50 54
e 50 57
e 50 60
e 50 66
e 50 67
e 50 68
e 50 70
e 50 71
e 50 75
e 51 52
e 51 55
e 51 57
e 51 59
e 51 60
e 51 62
e 51 68
e 51 69
e 51 70
e 51 74
e 52 53
e 52 55
e 52 67
e 52 70
e 52 71
e 52 75
e 53 57
e 53 61
e 53 63
e 53 65
e 53 67
e 53 68
e 53 69
e 53 70
e 53 73
e 53 75
e 54 56
e 54 60
e 54 61
e 54 65
e 55 57
e 55 61
e 55 62
e 55 63
e 55 66
e 55 67
e 55 69
e 55 71
e 55 73
e 56 60
e 56 66
e 56 67
e 56 68
e 56 70
e 57 60
e 57 61
e 57 65
e 57 71
e 57 74
e 58 67
e 58 72
e 59 65
e 59 67
e 59 70
e 59 71
e 60 65
e 60 72
e 60 74
e 61 62
e 61 65
e 61 67
e 61 70
e 61 71
e 62 69
e 63 64
e 63 70
e 63 73
e 63 74
e 64 70
e 64 71
e 64 73
e 64 75
e 65 67
e 65 71
e 66 67
e 66 69
e 66 70
e 66 71
e 66 75
e 67 73
e 68 71
e 68 72
e 69 71
e 69 75
e 70 71
e 71 74
e 74 75
